21294.22 0
0 68 86 11 54 2 9 93 42 53 20 88 22 64 18 33 90 73 76 37 28 62 50 99 83 30 87 15 57 1 95 72 91 38 60 39 66 43 81 46 47 98 19 71 7 78 85 16 24 56 23 10 25 29 21 6 80 27 48 94 82 17 63 14 35 45 65 12 3 40 26 92 13 34 8 52 32 89 55 67 31 74 69 58 59 70 96 61 77 5 44 75 36 4 41 97 51 49 79 84